w=30;
n=28;
W=[13, 11, 11, 8, 5, 5, 5, 11, 4, 5, 5, 3, 3, 3, 11, 7, 5, 8, 4, 2, 3, 5, 4, 3, 5, 2, 4, 3];
H=[21, 17, 14, 14, 21, 18, 18, 7, 18, 14, 14, 21, 18, 17, 4, 6, 7, 4, 7, 12, 7, 4, 5, 5, 3, 6, 3, 4];